1 20 20
2 52 20
3 91 14
4 116 20
5 148 20
6 176 30
7 212 20
8 244 20
9 283 19
10 308 20
11 340 20
12 364 21
13 404 20
14 436 20
15 475 21
16 500 20
17 532 20
18 564 15
19 596 20
20 628 20
21 652 10
22 692 20
23 724 20
24 756 16
25 788 20
26 820 20
27 861 21
28 884 20
29 916 20
30 957 23
31 980 20
32 999 20
33 999 13
34 999 20
35 999 20
36 999 17
37 999 20
38 999 20
39 999 20
40 999 20
41 999 20
42 999 11
43 999 20
44 999 20
45 999 26
46 999 20
47 999 20
48 999 24
49 999 20
50 999 20
51 999 13
52 999 20
53 999 20
54 999 18
55 999 20
56 20 45
57 53 51
58 84 45
59 116 45
60 150 54
61 180 45
62 212 45
63 250 50
64 276 45
65 308 45
66 336 36
67 372 45
68 404 45
69 439 38
70 468 45
71 500 45
72 541 36
73 564 45
74 596 45
75 637 50
76 660 45
77 692 45
78 721 54
79 756 45
80 788 45
81 820 43
82 852 45
83 884 45
84 916 49
85 948 45
86 980 45
87 999 54
88 999 45
89 999 45
90 999 41
91 999 45
92 999 45
93 999 35
94 999 45
95 999 45
96 999 36
97 999 45
98 999 45
99 999 51
100 999 45
101 999 45
102 999 55
103 999 45
104 999 45
105 999 36
106 999 45
107 999 45
108 999 37
109 999 45
110 999 45
111 29 80
112 52 70
113 84 70
114 124 75
115 148 70
116 180 70
117 220 67
118 244 70
119 276 70
120 312 65
121 340 70
122 372 70
123 406 77
124 436 70
125 468 70
126 492 79
127 532 70
128 564 70
129 594 76
130 628 70
131 660 70
132 685 71
133 724 70
134 756 70
135 791 76
136 820 70
137 852 70
138 887 72
139 916 70
140 948 70
141 974 66
142 999 70
143 999 70
144 999 75
145 999 70
146 999 70
147 999 64
148 999 70
149 999 70
150 999 77
151 999 70
152 999 70
153 999 80
154 999 70
155 999 70
156 999 78
157 999 70
158 999 70
159 999 64
160 999 70
161 999 70
162 999 71
163 999 70
164 999 70
165 999 75
166 20 95
167 52 95
168 90 94
169 116 95
170 148 95
171 175 91
172 212 95
173 244 95
174 281 99
175 308 95
176 340 95
177 381 104
178 404 95
179 436 95
180 471 105
181 500 95
182 532 95
183 567 101
184 596 95
185 628 95
186 656 101
187 692 95
188 724 95
189 755 88
190 788 95
191 820 95
192 861 98
193 884 95
194 916 95
195 950 88
196 980 95
197 999 95
198 999 98
199 999 95
200 999 95
201 999 102
202 999 95
203 999 95
204 999 97
205 999 95
206 999 95
207 999 90
208 999 95
209 999 95
210 999 88
211 999 95
212 999 95
213 999 98
214 999 95
215 999 95
216 999 103
217 999 95
218 999 95
219 999 89
220 999 95
221 20 120
222 49 129
223 84 120
224 116 120
225 150 124
226 180 120
227 212 120
228 250 129
229 276 120
230 308 120
231 341 116
232 372 120
233 404 120
234 430 111
235 468 120
236 500 120
237 536 124
238 564 120
239 596 120
240 626 127
241 660 120
242 692 120
243 720 117
244 756 120
245 788 120
246 829 117
247 852 120
248 884 120
249 924 113
250 948 120
251 980 120
252 999 118
253 999 120
254 999 120
255 999 112
256 999 120
257 999 120
258 999 124
259 999 120
260 999 120
261 999 120
262 999 120
263 999 120
264 999 130
265 999 120
266 999 120
267 999 118
268 999 120
269 999 120
270 999 115
271 999 120
272 999 120
273 999 130
274 999 120
275 999 120
276 11 154
277 52 145
278 84 145
279 113 154
280 148 145
281 180 145
282 203 151
283 244 145
284 276 145
285 310 142
286 340 145
287 372 145
288 413 148
289 436 145
290 468 145
291 507 137
292 532 145
293 564 145
294 604 144
295 628 145
296 660 145
297 696 148
298 724 145
299 756 145
300 778 152
301 820 145
302 852 145
303 891 154
304 916 145
305 948 145
306 970 145
307 999 145
308 999 145
309 999 137
310 999 145
311 999 145
312 999 136
313 999 145
314 999 145
315 999 140
316 999 145
317 999 145
318 999 140
319 999 145
320 999 145
321 999 138
322 999 145
323 999 145
324 999 141
325 999 145
326 999 145
327 999 135
328 999 145
329 999 145
330 999 154
331 20 170
332 52 170
333 75 171
334 116 170
335 148 170
336 186 171
337 212 170
338 244 170
339 269 174
340 308 170
341 340 170
342 379 178
343 404 170
344 436 170
345 470 175
346 500 170
347 532 170
348 560 163
349 596 170
350 628 170
351 658 180
352 692 170
353 724 170
354 754 178
355 788 170
356 820 170
357 862 172
358 884 170
359 916 170
360 950 165
361 980 170
362 999 170
363 999 180
364 999 170
365 999 170
366 999 167
367 999 170
368 999 170
369 999 173
370 999 170
371 999 170
372 999 173
373 999 170
374 999 170
375 999 171
376 999 170
377 999 170
378 999 174
379 999 170
380 999 170
381 999 161
382 999 170
383 999 170
384 999 166
385 999 170
386 20 195
387 44 195
388 84 195
389 116 195
390 144 197
391 180 195
392 212 195
393 239 185
394 276 195
395 308 195
396 339 192
397 372 195
398 404 195
399 446 187
400 468 195
401 500 195
402 540 204
403 564 195
404 596 195
405 634 188
406 660 195
407 692 195
408 721 200
409 756 195
410 788 195
411 818 200
412 852 195
413 884 195
414 925 186
415 948 195
416 980 195
417 999 194
418 999 195
419 999 195
420 999 195
421 999 195
422 999 195
423 999 189
424 999 195
425 999 195
426 999 186
427 999 195
428 999 195
429 999 198
430 999 195
431 999 195
432 999 191
433 999 195
434 999 195
435 999 186
436 999 195
437 999 195
438 999 194
439 999 195
440 999 195
441 15 230
442 52 220
443 84 220
444 106 230
445 148 220
446 180 220
447 213 217
448 244 220
449 276 220
450 306 229
451 340 220
452 372 220
453 409 226
454 436 220
455 468 220
456 507 230
457 532 220
458 564 220
459 590 218
460 628 220
461 660 220
462 687 228
463 724 220
464 756 220
465 780 224
466 820 220
467 852 220
468 883 224
469 916 220
470 948 220
471 970 226
472 999 220
473 999 220
474 999 210
475 999 220
476 999 220
477 999 218
478 999 220
479 999 220
480 999 217
481 999 220
482 999 220
483 999 221
484 999 220
485 999 220
486 999 225
487 999 220
488 999 220
489 999 228
490 999 220
491 999 220
492 999 219
493 999 220
494 999 220
495 999 229
496 20 245
497 52 245
498 85 245
499 116 245
500 148 245
501 170 246
502 212 245
503 244 245
504 281 238
505 308 245
506 340 245
507 369 251
508 404 245
509 436 245
510 475 238
511 500 245
512 532 245
513 561 248
514 596 245
515 628 245
516 654 246
517 692 245
518 724 245
519 758 235
520 788 245
521 820 245
522 850 244
523 884 245
524 916 245
525 945 255
526 980 245
527 999 245
528 999 237
529 999 245
530 999 245
531 999 236
532 999 245
533 999 245
534 999 239
535 999 245
536 999 245
537 999 237
538 999 245
539 999 245
540 999 241
541 999 245
542 999 245
543 999 251
544 999 245
545 999 245
546 999 239
547 999 245
548 999 245
549 999 255
550 999 245
551 20 270
552 55 270
553 84 270
554 116 270
555 138 270
556 180 270
557 212 270
558 248 270
559 276 270
560 308 270
561 342 272
562 372 270
563 404 270
564 446 280
565 468 270
566 500 270
567 529 264
568 564 270
569 596 270
570 620 268
571 660 270
572 692 270
573 724 280
574 756 270
575 788 270
576 812 276
577 852 270
578 884 270
579 911 269
580 948 270
581 980 270
582 999 280
583 999 270
584 999 270
585 999 271
586 999 270
587 999 270
588 999 265
589 999 270
590 999 270
591 999 270
592 999 270
593 999 270
594 999 271
595 999 270
596 999 270
597 999 260
598 999 270
599 999 270
600 999 273
601 999 270
602 999 270
603 999 278
604 999 270
605 999 270
606 19 302
607 52 295
608 84 295
609 112 289
610 148 295
611 180 295
612 212 305
613 244 295
614 276 295
615 300 292
616 340 295
617 372 295
618 411 303
619 436 295
620 468 295
621 510 287
622 532 295
623 564 295
624 603 305
625 628 295
626 660 295
627 696 292
628 724 295
629 756 295
630 797 299
631 820 295
632 852 295
633 874 299
634 916 295
635 948 295
636 976 294
637 999 295
638 999 295
639 999 294
640 999 295
641 999 295
642 999 286
643 999 295
644 999 295
645 999 293
646 999 295
647 999 295
648 999 292
649 999 295
650 999 295
651 999 295
652 999 295
653 999 295
654 999 297
655 999 295
656 999 295
657 999 290
658 999 295
659 999 295
660 999 285
661 20 320
662 52 320
663 93 330
664 116 320
665 148 320
666 188 327
667 212 320
668 244 320
669 281 313
670 308 320
671 340 320
672 367 312
673 404 320
674 436 320
675 472 314
676 500 320
677 532 320
678 572 313
679 596 320
680 628 320
681 651 325
682 692 320
683 724 320
684 758 324
685 788 320
686 820 320
687 853 330
688 884 320
689 916 320
690 946 327
691 980 320
692 999 320
693 999 319
694 999 320
695 999 320
696 999 324
697 999 320
698 999 320
699 999 319
700 999 320
701 999 320
702 999 320
703 999 320
704 999 320
705 999 314
706 999 320
707 999 320
708 999 319
709 999 320
710 999 320
711 999 328
712 999 320
713 999 320
714 999 310
715 999 320
716 20 345
717 58 345
718 84 345
719 116 345
720 153 339
721 180 345
722 212 345
723 238 336
724 276 345
725 308 345
726 337 338
727 372 345
728 404 345
729 436 340
730 468 345
731 500 345
732 528 335
733 564 345
734 596 345
735 636 342
736 660 345
737 692 345
738 714 347
739 756 345
740 788 345
741 827 348
742 852 345
743 884 345
744 907 344
745 948 345
746 980 345
747 999 338
748 999 345
749 999 345
750 999 341
751 999 345
752 999 345
753 999 350
754 999 345
755 999 345
756 999 345
757 999 345
758 999 345
759 999 344
760 999 345
761 999 345
762 999 338
763 999 345
764 999 345
765 999 346
766 999 345
767 999 345
768 999 336
769 999 345
770 999 345
771 15 363
772 52 370
773 84 370
774 119 378
775 148 370
776 180 370
777 203 368
778 244 370
779 276 370
780 301 374
781 340 370
782 372 370
783 397 361
784 436 370
785 468 370
786 502 375
787 532 370
788 564 370
789 589 376
790 628 370
791 660 370
792 694 364
793 724 370
794 756 370
795 795 365
796 820 370
797 852 370
798 886 373
799 916 370
800 948 370
801 983 368
802 999 370
803 999 370
804 999 369
805 999 370
806 999 370
807 999 378
808 999 370
809 999 370
810 999 361
811 999 370
812 999 370
813 999 362
814 999 370
815 999 370
816 999 367
817 999 370
818 999 370
819 999 380
820 999 370
821 999 370
822 999 373
823 999 370
824 999 370
825 999 363
826 20 395
827 52 395
828 82 385
829 116 395
830 148 395
831 190 389
832 212 395
833 244 395
834 268 385
835 308 395
836 340 395
837 364 391
838 404 395
839 436 395
840 465 385
841 500 395
842 532 395
843 571 387
844 596 395
845 628 395
846 656 400
847 692 395
848 724 395
849 765 390
850 788 395
851 820 395
852 850 402
853 884 395
854 916 395
855 938 389
856 980 395
857 999 395
858 999 389
859 999 395
860 999 395
861 999 386
862 999 395
863 999 395
864 999 385
865 999 395
866 999 395
867 999 390
868 999 395
869 999 395
870 999 388
871 999 395
872 999 395
873 999 404
874 999 395
875 999 395
876 999 398
877 999 395
878 999 395
879 999 397
880 999 395
881 20 420
882 55 419
883 84 420
884 116 420
885 144 413
886 180 420
887 212 420
888 240 425
889 276 420
890 308 420
891 340 416
892 372 420
893 404 420
894 431 427
895 468 420
896 500 420
897 538 417
898 564 420
899 596 420
900 626 414
901 660 420
902 692 420
903 725 420
904 756 420
905 788 420
906 823 426
907 852 420
908 884 420
909 913 413
910 948 420
911 980 420
912 999 428
913 999 420
914 999 420
915 999 412
916 999 420
917 999 420
918 999 428
919 999 420
920 999 420
921 999 413
922 999 420
923 999 420
924 999 429
925 999 420
926 999 420
927 999 424
928 999 420
929 999 420
930 999 417
931 999 420
932 999 420
933 999 430
934 999 420
935 999 420
936 21 453
937 52 445
938 84 445
939 124 437
940 148 445
941 180 445
942 216 450
943 244 445
944 276 445
945 315 453
946 340 445
947 372 445
948 398 448
949 436 445
950 468 445
951 508 435
952 532 445
953 564 445
954 598 454
955 628 445
956 660 445
957 688 444
958 724 445
959 756 445
960 784 450
961 820 445
962 852 445
963 886 450
964 916 445
965 948 445
966 990 438
967 999 445
968 999 445
969 999 444
970 999 445
971 999 445
972 999 442
973 999 445
974 999 445
975 999 442
976 999 445
977 999 445
978 999 437
979 999 445
980 999 445
981 999 435
982 999 445
983 999 445
984 999 447
985 999 445
986 999 445
987 999 450
988 999 445
989 999 445
990 999 439
991 20 470
992 52 470
993 83 465
994 116 470
995 148 470
996 171 471
997 212 470
998 244 470
999 285 467
1000 308 470
1001 340 470
1002 382 460
1003 404 470
1004 436 470
1005 470 472
1006 500 470
1007 532 470
1008 566 468
1009 596 470
1010 628 470
1011 657 461
1012 692 470
1013 724 470
1014 762 478
1015 788 470
1016 820 470
1017 862 467
1018 884 470
1019 916 470
1020 953 468
1021 980 470
1022 999 470
1023 999 467
1024 999 470
1025 999 470
1026 999 470
1027 999 470
1028 999 470
1029 999 461
1030 999 470
1031 999 470
1032 999 478
1033 999 470
1034 999 470
1035 999 480
1036 999 470
1037 999 470
1038 999 471
1039 999 470
1040 999 470
1041 999 462
1042 999 470
1043 999 470
1044 999 466
1045 999 470
1046 20 495
1047 56 493
1048 84 495
1049 116 495
1050 143 501
1051 180 495
1052 212 495
1053 244 497
1054 276 495
1055 308 495
1056 346 488
1057 372 495
1058 404 495
1059 441 496
1060 468 495
1061 500 495
1062 538 494
1063 564 495
1064 596 495
1065 622 499
1066 660 495
1067 692 495
1068 726 498
1069 756 495
1070 788 495
1071 810 495
1072 852 495
1073 884 495
1074 921 486
1075 948 495
1076 980 495
1077 999 497
1078 999 495
1079 999 495
1080 999 502
1081 999 495
1082 999 495
1083 999 487
1084 999 495
1085 999 495
1086 999 497
1087 999 495
1088 999 495
1089 999 486
1090 999 495
1091 999 495
1092 999 490
1093 999 495
1094 999 495
1095 999 495
1096 999 495
1097 999 495
1098 999 496
1099 999 495
1100 999 495
1101 11 530
1102 52 520
1103 84 520
1104 125 528
1105 148 520
1106 180 520
1107 214 527
1108 244 520
1109 276 520
1110 313 517
1111 340 520
1112 372 520
1113 400 524
1114 436 520
1115 468 520
1116 503 525
1117 532 520
1118 564 520
1119 594 516
1120 628 520
1121 660 520
1122 692 510
1123 724 520
1124 756 520
1125 785 514
1126 820 520
1127 852 520
1128 874 511
1129 916 520
1130 948 520
1131 986 519
1132 999 520
1133 999 520
1134 999 517
1135 999 520
1136 999 520
1137 999 513
1138 999 520
1139 999 520
1140 999 523
1141 999 520
1142 999 520
1143 999 520
1144 999 520
1145 999 520
1146 999 525
1147 999 520
1148 999 520
1149 999 511
1150 999 520
1151 999 520
1152 999 511
1153 999 520
1154 999 520
1155 999 528
1156 20 545
1157 52 545
1158 84 544
1159 116 545
1160 148 545
1161 187 540
1162 212 545
1163 244 545
1164 276 545
1165 308 545
1166 340 545
1167 371 552
1168 404 545
1169 436 545
1170 462 541
1171 500 545
1172 532 545
1173 565 553
1174 596 545
1175 628 545
1176 669 547
1177 692 545
1178 724 545
1179 755 537
1180 788 545
1181 820 545
1182 858 548
1183 884 545
1184 916 545
1185 945 546
1186 980 545
1187 999 545
1188 999 543
1189 999 545
1190 999 545
1191 999 536
1192 999 545
1193 999 545
1194 999 551
1195 999 545
1196 999 545
1197 999 553
1198 999 545
1199 999 545
1200 999 541
1201 999 545
1202 999 545
1203 999 544
1204 999 545
1205 999 545
1206 999 544
1207 999 545
1208 999 545
1209 999 546
1210 999 545
1211 20 570
1212 47 570
1213 84 570
1214 116 570
1215 157 561
1216 180 570
1217 212 570
1218 253 563
1219 276 570
1220 308 570
1221 350 564
1222 372 570
1223 404 570
1224 427 576
1225 468 570
1226 500 570
1227 534 560
1228 564 570
1229 596 570
1230 623 566
1231 660 570
1232 692 570
1233 719 578
1234 756 570
1235 788 570
1236 824 560
1237 852 570
1238 884 570
1239 906 561
1240 948 570
1241 980 570
1242 999 575
1243 999 570
1244 999 570
1245 999 574
1246 999 570
1247 999 570
1248 999 571
1249 999 570
1250 999 570
1251 999 578
1252 999 570
1253 999 570
1254 999 562
1255 999 570
1256 999 570
1257 999 569
1258 999 570
1259 999 570
1260 999 578
1261 999 570
1262 999 570
1263 999 565
1264 999 570
1265 999 570
1266 25 591
1267 52 595
1268 84 595
1269 119 599
1270 148 595
1271 180 595
1272 211 587
1273 244 595
1274 276 595
1275 318 604
1276 340 595
1277 372 595
1278 398 586
1279 436 595
1280 468 595
1281 502 605
1282 532 595
1283 564 595
1284 587 603
1285 628 595
1286 660 595
1287 698 593
1288 724 595
1289 756 595
1290 787 598
1291 820 595
1292 852 595
1293 882 596
1294 916 595
1295 948 595
1296 989 589
1297 999 595
1298 999 595
1299 999 592
1300 999 595
1301 999 595
1302 999 587
1303 999 595
1304 999 595
1305 999 605
1306 999 595
1307 999 595
1308 999 588
1309 999 595
1310 999 595
1311 999 593
1312 999 595
1313 999 595
1314 999 605
1315 999 595
1316 999 595
1317 999 592
1318 999 595
1319 999 595
1320 999 592
1321 20 620
1322 52 620
1323 87 610
1324 116 620
1325 148 620
1326 185 622
1327 212 620
1328 244 620
1329 276 616
1330 308 620
1331 340 620
1332 381 621
1333 404 620
1334 436 620
1335 475 623
1336 500 620
1337 532 620
1338 560 610
1339 596 620
1340 628 620
1341 650 616
1342 692 620
1343 724 620
1344 756 617
1345 788 620
1346 820 620
1347 848 620
1348 884 620
1349 916 620
1350 950 615
1351 980 620
1352 999 620
1353 999 617
1354 999 620
1355 999 620
1356 999 610
1357 999 620
1358 999 620
1359 999 610
1360 999 620
1361 999 620
1362 999 614
1363 999 620
1364 999 620
1365 999 611
1366 999 620
1367 999 620
1368 999 618
1369 999 620
1370 999 620
1371 999 611
1372 999 620
1373 999 620
1374 999 618
1375 999 620
1376 20 645
1377 58 642
1378 84 645
1379 116 645
1380 152 642
1381 180 645
1382 212 645
1383 242 637
1384 276 645
1385 308 645
1386 336 636
1387 372 645
1388 404 645
1389 440 641
1390 468 645
1391 500 645
1392 525 651
1393 564 645
1394 596 645
1395 636 636
1396 660 645
1397 692 645
1398 727 649
1399 756 645
1400 788 645
1401 825 637
1402 852 645
1403 884 645
1404 913 640
1405 948 645
1406 980 645
1407 999 650
1408 999 645
1409 999 645
1410 999 645
1411 999 645
1412 999 645
1413 999 650
1414 999 645
1415 999 645
1416 999 650
1417 999 645
1418 999 645
1419 999 654
1420 999 645
1421 999 645
1422 999 654
1423 999 645
1424 999 645
1425 999 637
1426 999 645
1427 999 645
1428 999 655
1429 999 645
1430 999 645
1431 26 665
1432 52 670
1433 84 670
1434 124 678
1435 148 670
1436 180 670
1437 203 668
1438 244 670
1439 276 670
1440 304 665
1441 340 670
1442 372 670
1443 412 663
1444 436 670
1445 468 670
1446 496 669
1447 532 670
1448 564 670
1449 594 661
1450 628 670
1451 660 670
1452 695 677
1453 724 670
1454 756 670
1455 792 675
1456 820 670
1457 852 670
1458 891 661
1459 916 670
1460 948 670
1461 976 664
1462 999 670
1463 999 670
1464 999 674
1465 999 670
1466 999 670
1467 999 671
1468 999 670
1469 999 670
1470 999 676
1471 999 670
1472 999 670
1473 999 664
1474 999 670
1475 999 670
1476 999 676
1477 999 670
1478 999 670
1479 999 673
1480 999 670
1481 999 670
1482 999 670
1483 999 670
1484 999 670
1485 999 669
1486 20 695
1487 52 695
1488 78 688
1489 116 695
1490 148 695
1491 178 700
1492 212 695
1493 244 695
1494 279 688
1495 308 695
1496 340 695
1497 370 695
1498 404 695
1499 436 695
1500 465 702
1501 500 695
1502 532 695
1503 559 689
1504 596 695
1505 628 695
1506 654 697
1507 692 695
1508 724 695
1509 752 695
1510 788 695
1511 820 695
1512 856 697
1513 884 695
1514 916 695
1515 943 688
1516 980 695
1517 999 695
1518 999 695
1519 999 695
1520 999 695
1521 999 696
1522 999 695
1523 999 695
1524 999 698
1525 999 695
1526 999 695
1527 999 696
1528 999 695
1529 999 695
1530 999 700
1531 999 695
1532 999 695
1533 999 688
1534 999 695
1535 999 695
1536 999 690
1537 999 695
1538 999 695
1539 999 698
1540 999 695
1541 20 720
1542 55 721
1543 84 720
1544 116 720
1545 150 727
1546 180 720
1547 212 720
1548 240 723
1549 276 720
1550 308 720
1551 334 716
1552 372 720
1553 404 720
1554 436 710
1555 468 720
1556 500 720
1557 542 729
1558 564 720
1559 596 720
1560 628 711
1561 660 720
1562 692 720
1563 734 715
1564 756 720
1565 788 720
1566 814 711
1567 852 720
1568 884 720
1569 921 725
1570 948 720
1571 980 720
1572 999 727
1573 999 720
1574 999 720
1575 999 730
1576 999 720
1577 999 720
1578 999 727
1579 999 720
1580 999 720
1581 999 722
1582 999 720
1583 999 720
1584 999 712
1585 999 720
1586 999 720
1587 999 730
1588 999 720
1589 999 720
1590 999 723
1591 999 720
1592 999 720
1593 999 712
1594 999 720
1595 999 720
1596 30 743
1597 52 745
1598 84 745
1599 124 736
1600 148 745
1601 180 745
1602 208 754
1603 244 745
1604 276 745
1605 299 755
1606 340 745
1607 372 745
1608 407 750
1609 436 745
1610 468 745
1611 490 752
1612 532 745
1613 564 745
1614 601 753
1615 628 745
1616 660 745
1617 701 745
1618 724 745
1619 756 745
1620 789 750
1621 820 745
1622 852 745
1623 889 752
1624 916 745
1625 948 745
1626 987 747
1627 999 745
1628 999 745
1629 999 744
1630 999 745
1631 999 745
1632 999 747
1633 999 745
1634 999 745
1635 999 743
1636 999 745
1637 999 745
1638 999 735
1639 999 745
1640 999 745
1641 999 752
1642 999 745
1643 999 745
1644 999 753
1645 999 745
1646 999 745
1647 999 752
1648 999 745
1649 999 745
1650 999 748
1651 20 770
1652 52 770
1653 82 780
1654 116 770
1655 148 770
1656 186 775
1657 212 770
1658 244 770
1659 272 775
1660 308 770
1661 340 770
1662 378 775
1663 404 770
1664 436 770
1665 475 776
1666 500 770
1667 532 770
1668 558 763
1669 596 770
1670 628 770
1671 659 767
1672 692 770
1673 724 770
1674 765 760
1675 788 770
1676 820 770
1677 847 768
1678 884 770
1679 916 770
1680 938 768
1681 980 770
1682 999 770
1683 999 774
1684 999 770
1685 999 770
1686 999 774
1687 999 770
1688 999 770
1689 999 773
1690 999 770
1691 999 770
1692 999 764
1693 999 770
1694 999 770
1695 999 778
1696 999 770
1697 999 770
1698 999 762
1699 999 770
1700 999 770
1701 999 778
1702 999 770
1703 999 770
1704 999 776
1705 999 770
1706 20 795
1707 42 786
1708 84 795
1709 116 795
1710 144 798
1711 180 795
1712 212 795
1713 247 792
1714 276 795
1715 308 795
1716 346 799
1717 372 795
1718 404 795
1719 430 789
1720 468 795
1721 500 795
1722 534 795
1723 564 795
1724 596 795
1725 637 790
1726 660 795
1727 692 795
1728 726 799
1729 756 795
1730 788 795
1731 826 799
1732 852 795
1733 884 795
1734 919 799
1735 948 795
1736 980 795
1737 999 787
1738 999 795
1739 999 795
1740 999 798
1741 999 795
1742 999 795
1743 999 797
1744 999 795
1745 999 795
1746 999 799
1747 999 795
1748 999 795
1749 999 786
1750 999 795
1751 999 795
1752 999 796
1753 999 795
1754 999 795
1755 999 788
1756 999 795
1757 999 795
1758 999 789
1759 999 795
1760 999 795
1761 11 799
1762 52 799
1763 84 799
1764 121 799
1765 148 799
1766 180 799
1767 221 799
1768 244 799
1769 276 799
1770 308 799
1771 340 799
1772 372 799
1773 395 799
1774 436 799
1775 468 799
1776 495 799
1777 532 799
1778 564 799
1779 591 799
1780 628 799
1781 660 799
1782 688 799
1783 724 799
1784 756 799
1785 783 799
1786 820 799
1787 852 799
1788 876 799
1789 916 799
1790 948 799
1791 989 799
1792 999 799
1793 999 799
1794 999 799
1795 999 799
1796 999 799
1797 999 799
1798 999 799
1799 999 799
1800 999 799
1801 999 799
1802 999 799
1803 999 799
1804 999 799
1805 999 799
1806 999 799
1807 999 799
1808 999 799
1809 999 799
1810 999 799
1811 999 799
1812 999 799
1813 999 799
1814 999 799
1815 999 799
1816 20 799
1817 52 799
1818 91 799
1819 116 799
1820 148 799
1821 182 799
1822 212 799
1823 244 799
1824 278 799
1825 308 799
1826 340 799
1827 368 799
1828 404 799
1829 436 799
1830 472 799
1831 500 799
1832 532 799
1833 570 799
1834 596 799
1835 628 799
1836 655 799
1837 692 799
1838 724 799
1839 746 799
1840 788 799
1841 820 799
1842 848 799
1843 884 799
1844 916 799
1845 949 799
1846 980 799
1847 999 799
1848 999 799
1849 999 799
1850 999 799
1851 999 799
1852 999 799
1853 999 799
1854 999 799
1855 999 799
1856 999 799
1857 999 799
1858 999 799
1859 999 799
1860 999 799
1861 999 799
1862 999 799
1863 999 799
1864 999 799
1865 999 799
1866 999 799
1867 999 799
1868 999 799
1869 999 799
1870 999 799
1871 20 799
1872 48 799
1873 84 799
1874 116 799
1875 139 799
1876 180 799
1877 212 799
1878 249 799
1879 276 799
1880 308 799
1881 332 799
1882 372 799
1883 404 799
1884 433 799
1885 468 799
1886 500 799
1887 538 799
1888 564 799
1889 596 799
1890 633 799
1891 660 799
1892 692 799
1893 716 799
1894 756 799
1895 788 799
1896 828 799
1897 852 799
1898 884 799
1899 917 799
1900 948 799
1901 980 799
1902 999 799
1903 999 799
1904 999 799
1905 999 799
1906 999 799
1907 999 799
1908 999 799
1909 999 799
1910 999 799
1911 999 799
1912 999 799
1913 999 799
1914 999 799
1915 999 799
1916 999 799
1917 999 799
1918 999 799
1919 999 799
1920 999 799
1921 999 799
1922 999 799
1923 999 799
1924 999 799
1925 999 799
1926 16 799
1927 52 799
1928 84 799
1929 126 799
1930 148 799
1931 180 799
1932 202 799
1933 244 799
1934 276 799
1935 298 799
1936 340 799
1937 372 799
1938 399 799
1939 436 799
1940 468 799
1941 506 799
1942 532 799
1943 564 799
1944 601 799
1945 628 799
1946 660 799
1947 682 799
1948 724 799
1949 756 799
1950 794 799
1951 820 799
1952 852 799
1953 882 799
1954 916 799
1955 948 799
1956 979 799
1957 999 799
1958 999 799
1959 999 799
1960 999 799
1961 999 799
1962 999 799
1963 999 799
1964 999 799
1965 999 799
1966 999 799
1967 999 799
1968 999 799
1969 999 799
1970 999 799
1971 999 799
1972 999 799
1973 999 799
1974 999 799
1975 999 799
1976 999 799
1977 999 799
1978 999 799
1979 999 799
1980 999 799
1981 20 799
1982 52 799
1983 89 799
1984 116 799
1985 148 799
1986 173 799
1987 212 799
1988 244 799
1989 271 799
1990 308 799
1991 340 799
1992 363 799
1993 404 799
1994 436 799
1995 461 799
1996 500 799
1997 532 799
1998 571 799
1999 596 799
2000 628 799
2001 654 799
2002 692 799
2003 724 799
2004 761 799
2005 788 799
2006 820 799
2007 856 799
2008 884 799
2009 916 799
2010 939 799
2011 980 799
2012 999 799
2013 999 799
2014 999 799
2015 999 799
2016 999 799
2017 999 799
2018 999 799
2019 999 799
2020 999 799
2021 999 799
2022 999 799
2023 999 799
2024 999 799
2025 999 799
2026 999 799
2027 999 799
2028 999 799
2029 999 799
2030 999 799
2031 999 799
2032 999 799
2033 999 799
2034 999 799
2035 999 799
2036 20 799
2037 60 799
2038 84 799
2039 116 799
2040 143 799
2041 180 799
2042 212 799
2043 251 799
2044 276 799
2045 308 799
2046 331 799
2047 372 799
2048 404 799
2049 439 799
2050 468 799
2051 500 799
2052 534 799
2053 564 799
2054 596 799
2055 636 799
2056 660 799
2057 692 799
2058 719 799
2059 756 799
2060 788 799
2061 824 799
2062 852 799
2063 884 799
2064 909 799
2065 948 799
2066 980 799
2067 999 799
2068 999 799
2069 999 799
2070 999 799
2071 999 799
2072 999 799
2073 999 799
2074 999 799
2075 999 799
2076 999 799
2077 999 799
2078 999 799
2079 999 799
2080 999 799
2081 999 799
2082 999 799
2083 999 799
2084 999 799
2085 999 799
2086 999 799
2087 999 799
2088 999 799
2089 999 799
2090 999 799
2091 20 799
2092 52 799
2093 84 799
2094 110 799
2095 148 799
2096 180 799
2097 216 799
2098 244 799
2099 276 799
2100 316 799
2101 340 799
2102 372 799
2103 412 799
2104 436 799
2105 468 799
2106 496 799
2107 532 799
2108 564 799
2109 595 799
2110 628 799
2111 660 799
2112 693 799
2113 724 799
2114 756 799
2115 779 799
2116 820 799
2117 852 799
2118 879 799
2119 916 799
2120 948 799
2121 987 799
2122 999 799
2123 999 799
2124 999 799
2125 999 799
2126 999 799
2127 999 799
2128 999 799
2129 999 799
2130 999 799
2131 999 799
2132 999 799
2133 999 799
2134 999 799
2135 999 799
2136 999 799
2137 999 799
2138 999 799
2139 999 799
2140 999 799
2141 999 799
2142 999 799
2143 999 799
2144 999 799
2145 999 799
2146 20 799
2147 52 799
2148 78 799
2149 116 799
2150 148 799
2151 184 799
2152 212 799
2153 244 799
2154 285 799
2155 308 799
2156 340 799
2157 374 799
2158 404 799
2159 436 799
2160 478 799
2161 500 799
2162 532 799
2163 574 799
2164 596 799
2165 628 799
2166 668 799
2167 692 799
2168 724 799
2169 746 799
2170 788 799
2171 820 799
2172 844 799
2173 884 799
2174 916 799
2175 945 799
2176 980 799
2177 999 799
2178 999 799
2179 999 799
2180 999 799
2181 999 799
2182 999 799
2183 999 799
2184 999 799
2185 999 799
2186 999 799
2187 999 799
2188 999 799
2189 999 799
2190 999 799
2191 999 799
2192 999 799
2193 999 799
2194 999 799
2195 999 799
2196 999 799
2197 999 799
2198 999 799
2199 999 799
2200 999 799
2201 20 799
2202 54 799
2203 84 799
2204 116 799
2205 148 799
2206 180 799
2207 212 799
2208 241 799
2209 276 799
2210 308 799
2211 343 799
2212 372 799
2213 404 799
2214 428 799
2215 468 799
2216 500 799
2217 537 799
2218 564 799
2219 596 799
2220 629 799
2221 660 799
2222 692 799
2223 717 799
2224 756 799
2225 788 799
2226 824 799
2227 852 799
2228 884 799
2229 914 799
2230 948 799
2231 980 799
2232 999 799
2233 999 799
2234 999 799
2235 999 799
2236 999 799
2237 999 799
2238 999 799
2239 999 799
2240 999 799
2241 999 799
2242 999 799
2243 999 799
2244 999 799
2245 999 799
2246 999 799
2247 999 799
2248 999 799
2249 999 799
2250 999 799
2251 999 799
2252 999 799
2253 999 799
2254 999 799
2255 999 799
2256 21 799
2257 52 799
2258 84 799
2259 124 799
2260 148 799
2261 180 799
2262 211 799
2263 244 799
2264 276 799
2265 312 799
2266 340 799
2267 372 799
2268 404 799
2269 436 799
2270 468 799
2271 492 799
2272 532 799
2273 564 799
2274 606 799
2275 628 799
2276 660 799
2277 699 799
2278 724 799
2279 756 799
2280 798 799
2281 820 799
2282 852 799
2283 888 799
2284 916 799
2285 948 799
2286 971 799
2287 999 799
2288 999 799
2289 999 799
2290 999 799
2291 999 799
2292 999 799
2293 999 799
2294 999 799
2295 999 799
2296 999 799
2297 999 799
2298 999 799
2299 999 799
2300 999 799
2301 999 799
2302 999 799
2303 999 799
2304 999 799
2305 999 799
2306 999 799
2307 999 799
2308 999 799
2309 999 799
2310 999 799
2311 20 799
2312 52 799
2313 89 799
2314 116 799
2315 148 799
2316 174 799
2317 212 799
2318 244 799
2319 269 799
2320 308 799
2321 340 799
2322 378 799
2323 404 799
2324 436 799
2325 477 799
2326 500 799
2327 532 799
2328 567 799
2329 596 799
2330 628 799
2331 660 799
2332 692 799
2333 724 799
2334 747 799
2335 788 799
2336 820 799
2337 859 799
2338 884 799
2339 916 799
2340 956 799
2341 980 799
2342 999 799
2343 999 799
2344 999 799
2345 999 799
2346 999 799
2347 999 799
2348 999 799
2349 999 799
2350 999 799
2351 999 799
2352 999 799
2353 999 799
2354 999 799
2355 999 799
2356 999 799
2357 999 799
2358 999 799
2359 999 799
2360 999 799
2361 999 799
2362 999 799
2363 999 799
2364 999 799
2365 999 799
2366 20 799
2367 51 799
2368 84 799
2369 116 799
2370 152 799
2371 180 799
2372 212 799
2373 248 799
2374 276 799
2375 308 799
2376 348 799
2377 372 799
2378 404 799
2379 446 799
2380 468 799
2381 500 799
2382 537 799
2383 564 799
2384 596 799
2385 633 799
2386 660 799
2387 692 799
2388 722 799
2389 756 799
2390 788 799
2391 817 799
2392 852 799
2393 884 799
2394 921 799
2395 948 799
2396 980 799
2397 999 799
2398 999 799
2399 999 799
2400 999 799
2401 999 799
2402 999 799
2403 999 799
2404 999 799
2405 999 799
2406 999 799
2407 999 799
2408 999 799
2409 999 799
2410 999 799
2411 999 799
2412 999 799
2413 999 799
2414 999 799
2415 999 799
2416 999 799
2417 999 799
2418 999 799
2419 999 799
2420 999 799
2421 10 799
2422 52 799
2423 84 799
2424 120 799
2425 148 799
2426 180 799
2427 218 799
2428 244 799
2429 276 799
2430 299 799
2431 340 799
2432 372 799
2433 405 799
2434 436 799
2435 468 799
2436 503 799
2437 532 799
2438 564 799
2439 591 799
2440 628 799
2441 660 799
2442 687 799
2443 724 799
2444 756 799
2445 781 799
2446 820 799
2447 852 799
2448 882 799
2449 916 799
2450 948 799
2451 979 799
2452 999 799
2453 999 799
2454 999 799
2455 999 799
2456 999 799
2457 999 799
2458 999 799
2459 999 799
2460 999 799
2461 999 799
2462 999 799
2463 999 799
2464 999 799
2465 999 799
2466 999 799
2467 999 799
2468 999 799
2469 999 799
2470 999 799
2471 999 799
2472 999 799
2473 999 799
2474 999 799
2475 999 799
2476 20 799
2477 52 799
2478 80 799
2479 116 799
2480 148 799
2481 171 799
2482 212 799
2483 244 799
2484 273 799
2485 308 799
2486 340 799
2487 378 799
2488 404 799
2489 436 799
2490 477 799
2491 500 799
2492 532 799
2493 570 799
2494 596 799
2495 628 799
2496 659 799
2497 692 799
2498 724 799
2499 753 799
2500 788 799
2501 820 799
2502 851 799
2503 884 799
2504 916 799
2505 947 799
2506 980 799
2507 999 799
2508 999 799
2509 999 799
2510 999 799
2511 999 799
2512 999 799
2513 999 799
2514 999 799
2515 999 799
2516 999 799
2517 999 799
2518 999 799
2519 999 799
2520 999 799
2521 999 799
2522 999 799
2523 999 799
2524 999 799
2525 999 799
2526 999 799
2527 999 799
2528 999 799
2529 999 799
2530 999 799
2531 20 799
2532 46 799
2533 84 799
2534 116 799
2535 146 799
2536 180 799
2537 212 799
2538 243 799
2539 276 799
2540 308 799
2541 345 799
2542 372 799
2543 404 799
2544 429 799
2545 468 799
2546 500 799
2547 536 799
2548 564 799
2549 596 799
2550 630 799
2551 660 799
2552 692 799
2553 715 799
2554 756 799
2555 788 799
2556 828 799
2557 852 799
2558 884 799
2559 912 799
2560 948 799
2561 980 799
2562 999 799
2563 999 799
2564 999 799
2565 999 799
2566 999 799
2567 999 799
2568 999 799
2569 999 799
2570 999 799
2571 999 799
2572 999 799
2573 999 799
2574 999 799
2575 999 799
2576 999 799
2577 999 799
2578 999 799
2579 999 799
2580 999 799
2581 999 799
2582 999 799
2583 999 799
2584 999 799
2585 999 799
2586 27 799
2587 52 799
2588 84 799
2589 126 799
2590 148 799
2591 180 799
2592 210 799
2593 244 799
2594 276 799
2595 317 799
2596 340 799
2597 372 799
2598 409 799
2599 436 799
2600 468 799
2601 490 799
2602 532 799
2603 564 799
2604 600 799
2605 628 799
2606 660 799
2607 683 799
2608 724 799
2609 756 799
2610 778 799
2611 820 799
2612 852 799
2613 874 799
2614 916 799
2615 948 799
2616 981 799
2617 999 799
2618 999 799
2619 999 799
2620 999 799
2621 999 799
2622 999 799
2623 999 799
2624 999 799
2625 999 799
2626 999 799
2627 999 799
2628 999 799
2629 999 799
2630 999 799
2631 999 799
2632 999 799
2633 999 799
2634 999 799
2635 999 799
2636 999 799
2637 999 799
2638 999 799
2639 999 799
2640 999 799
2641 20 799
2642 52 799
2643 90 799
2644 116 799
2645 148 799
2646 171 799
2647 212 799
2648 244 799
2649 271 799
2650 308 799
2651 340 799
2652 364 799
2653 404 799
2654 436 799
2655 467 799
2656 500 799
2657 532 799
2658 570 799
2659 596 799
2660 628 799
2661 651 799
2662 692 799
2663 724 799
2664 756 799
2665 788 799
2666 820 799
2667 849 799
2668 884 799
2669 916 799
2670 949 799
2671 980 799
2672 999 799
2673 999 799
2674 999 799
2675 999 799
2676 999 799
2677 999 799
2678 999 799
2679 999 799
2680 999 799
2681 999 799
2682 999 799
2683 999 799
2684 999 799
2685 999 799
2686 999 799
2687 999 799
2688 999 799
2689 999 799
2690 999 799
2691 999 799
2692 999 799
2693 999 799
2694 999 799
2695 999 799
2696 20 799
2697 45 799
2698 84 799
2699 116 799
2700 142 799
2701 180 799
2702 212 799
2703 237 799
2704 276 799
2705 308 799
2706 331 799
2707 372 799
2708 404 799
2709 436 799
2710 468 799
2711 500 799
2712 532 799
2713 564 799
2714 596 799
2715 630 799
2716 660 799
2717 692 799
2718 731 799
2719 756 799
2720 788 799
2721 821 799
2722 852 799
2723 884 799
2724 906 799
2725 948 799
2726 980 799
2727 999 799
2728 999 799
2729 999 799
2730 999 799
2731 999 799
2732 999 799
2733 999 799
2734 999 799
2735 999 799
2736 999 799
2737 999 799
2738 999 799
2739 999 799
2740 999 799
2741 999 799
2742 999 799
2743 999 799
2744 999 799
2745 999 799
2746 999 799
2747 999 799
2748 999 799
2749 999 799
2750 999 799
2751 14 799
2752 52 799
2753 84 799
2754 115 799
2755 148 799
2756 180 799
2757 217 799
2758 244 799
2759 276 799
2760 300 799
2761 340 799
2762 372 799
2763 406 799
2764 436 799
2765 468 799
2766 497 799
2767 532 799
2768 564 799
2769 600 799
2770 628 799
2771 660 799
2772 690 799
2773 724 799
2774 756 799
2775 796 799
2776 820 799
2777 852 799
2778 884 799
2779 916 799
2780 948 799
2781 976 799
2782 999 799
2783 999 799
2784 999 799
2785 999 799
2786 999 799
2787 999 799
2788 999 799
2789 999 799
2790 999 799
2791 999 799
2792 999 799
2793 999 799
2794 999 799
2795 999 799
2796 999 799
2797 999 799
2798 999 799
2799 999 799
2800 999 799
2801 999 799
2802 999 799
2803 999 799
2804 999 799
2805 999 799
2806 20 799
2807 52 799
2808 77 799
2809 116 799
2810 148 799
2811 176 799
2812 212 799
2813 244 799
2814 276 799
2815 308 799
2816 340 799
2817 379 799
2818 404 799
2819 436 799
2820 463 799
2821 500 799
2822 532 799
2823 563 799
2824 596 799
2825 628 799
2826 656 799
2827 692 799
2828 724 799
2829 752 799
2830 788 799
2831 820 799
2832 846 799
2833 884 799
2834 916 799
2835 952 799
2836 980 799
2837 999 799
2838 999 799
2839 999 799
2840 999 799
2841 999 799
2842 999 799
2843 999 799
2844 999 799
2845 999 799
2846 999 799
2847 999 799
2848 999 799
2849 999 799
2850 999 799
2851 999 799
2852 999 799
2853 999 799
2854 999 799
2855 999 799
2856 999 799
2857 999 799
2858 999 799
2859 999 799
2860 999 799
2861 20 799
2862 50 799
2863 84 799
2864 116 799
2865 150 799
2866 180 799
2867 212 799
2868 236 799
2869 276 799
2870 308 799
2871 348 799
2872 372 799
2873 404 799
2874 430 799
2875 468 799
2876 500 799
2877 522 799
2878 564 799
2879 596 799
2880 628 799
2881 660 799
2882 692 799
2883 716 799
2884 756 799
2885 788 799
2886 823 799
2887 852 799
2888 884 799
2889 912 799
2890 948 799
2891 980 799
2892 999 799
2893 999 799
2894 999 799
2895 999 799
2896 999 799
2897 999 799
2898 999 799
2899 999 799
2900 999 799
2901 999 799
2902 999 799
2903 999 799
2904 999 799
2905 999 799
2906 999 799
2907 999 799
2908 999 799
2909 999 799
2910 999 799
2911 999 799
2912 999 799
2913 999 799
2914 999 799
2915 999 799
2916 21 799
2917 52 799
2918 84 799
2919 113 799
2920 148 799
2921 180 799
2922 217 799
2923 244 799
2924 276 799
2925 303 799
2926 340 799
2927 372 799
2928 398 799
2929 436 799
2930 468 799
2931 491 799
2932 532 799
2933 564 799
2934 591 799
2935 628 799
2936 660 799
2937 690 799
2938 724 799
2939 756 799
2940 783 799
2941 820 799
2942 852 799
2943 893 799
2944 916 799
2945 948 799
2946 977 799
2947 999 799
2948 999 799
2949 999 799
2950 999 799
2951 999 799
2952 999 799
2953 999 799
2954 999 799
2955 999 799
2956 999 799
2957 999 799
2958 999 799
2959 999 799
2960 999 799
2961 999 799
2962 999 799
2963 999 799
2964 999 799
2965 999 799
2966 999 799
2967 999 799
2968 999 799
2969 999 799
2970 999 799
2971 20 799
2972 52 799
2973 92 799
2974 116 799
2975 148 799
2976 182 799
2977 212 799
2978 244 799
2979 266 799
2980 308 799
2981 340 799
2982 366 799
2983 404 799
2984 436 799
2985 471 799
2986 500 799
2987 532 799
2988 573 799
2989 596 799
2990 628 799
2991 659 799
2992 692 799
2993 724 799
2994 765 799
2995 788 799
2996 820 799
2997 857 799
2998 884 799
2999 916 799
3000 955 799
3001 980 799
3002 999 799
3003 999 799
3004 999 799
3005 999 799
3006 999 799
3007 999 799
3008 999 799
3009 999 799
3010 999 799
3011 999 799
3012 999 799
3013 999 799
3014 999 799
3015 999 799
3016 999 799
3017 999 799
3018 999 799
3019 999 799
3020 999 799
3021 999 799
3022 999 799
3023 999 799
3024 999 799
3025 999 799
3026 20 799
3027 62 799
3028 84 799
3029 116 799
3030 145 799
3031 180 799
3032 212 799
3033 246 799
3034 276 799
3035 308 799
3036 337 799
3037 372 799
3038 404 799
